PREC = Accurate
EDIFF = 1e-5
EDIFFG = -0.01
ENCUT = 550
!ISYM = 0

ISIF = 2
IBRION = 2
POTIM = 0.1
ICHARG = 2

!ISTART = 0
!SYMPREC = 1E-3
NSW = 300
NELM = 150
ISMEAR = 0
SIGMA = 0.05
LMAXMIX = 4

!LDAU = T
!LDAUTYPE = 2
!LDAUL = -1 2 -1
!LDAUU = 0 4.4 0
!LDAUJ = 0 0.5 0

!LSORBIT = T
!GGA_COMPAT = F
!NBANDS = 112
!SAXIS = 0 0 1
!MAGMOM = 24*0 0 0 -4 0 0 4 0 0 4 0 0 -4 12*0

ALGO = Normal
!AMIN = 0.01
LWAVE = .FALSE.
LCHARG = .FALSE.
LREAL = F
ISPIN = 2
NPAR = 4
!NEDOS = 2000
!LORBIT = 11
IVDW = 11

MAGMOM = -5 0 0 0 0 5 0 0 5 0 0 5 0 0 5 0 0 5 0 0 5 0 0 5 0 0 0 0 0 0 0 0 0 0 0 0 0 0 0 0 0 0 0 0 0 0 0 0 0 0 5 0 0 5 0 0 5 0 0 5 0 0 5 0 0 5 0 0 5 0 0 5 0 0 0 0 0 0 0 0 0 0 0 0 0 0 0 0 0 0 0 0 0 0 0 0 0 0 5 0 0 5 0 0 5 0 0 5 0 0 5 0 0 5 0 0 5 0 0 5 0 0 0 0 0 0 0 0 0 0 0 0 0 0 0 0 0 0 0 0 0 0 0 0 0 0 5 0 0 5 0 0 5 0 0 5 0 0 5 0 0 5 0 5 0 0 0 5 0 0 0 0 0 0 0 0 0 0 0 0 0 0 0 0 0 0 0 0 0 0 0 0
