Ni32 O32
1.0
   8.3726751800000017    0.0000000000000000    0.0000000000000000
   0.0000000000000000    8.3726751800000017    0.0000000000000000
   0.0000000000000000    0.0000000000000000    8.3726751800000017
Ni O Ni O Ni O Ni O
8 8 8 8 8 8 8 8
direct
   0.0000000000000000    0.0000000000000000    0.0000000000000000 Ni
   0.0000000000000000    0.0000000000000000    0.5000000000000000 Ni
   0.0000000000000000    0.5000000000000000    0.0000000000000000 Ni
   0.0000000000000000    0.5000000000000000    0.5000000000000000 Ni
   0.5000000000000000    0.0000000000000000    0.0000000000000000 Ni
   0.5000000000000000    0.0000000000000000    0.5000000000000000 Ni
   0.5000000000000000    0.5000000000000000    0.0000000000000000 Ni
   0.5000000000000000    0.5000000000000000    0.5000000000000000 Ni
   0.2500000000000000    0.0000000000000000    0.0000000000000000 O
   0.2500000000000000    0.0000000000000000    0.5000000000000000 O
   0.2500000000000000    0.5000000000000000    0.0000000000000000 O
   0.2500000000000000    0.5000000000000000    0.5000000000000000 O
   0.7500000000000000    0.0000000000000000    0.0000000000000000 O
   0.7500000000000000    0.0000000000000000    0.5000000000000000 O
   0.7500000000000000    0.5000000000000000    0.0000000000000000 O
   0.7500000000000000    0.5000000000000000    0.5000000000000000 O
   0.0000000000000000    0.2500000000000000    0.2500000000000000 Ni
   0.0000000000000000    0.2500000000000000    0.7500000000000000 Ni
   0.0000000000000000    0.7500000000000000    0.2500000000000000 Ni
   0.0000000000000000    0.7500000000000000    0.7500000000000000 Ni
   0.5000000000000000    0.2500000000000000    0.2500000000000000 Ni
   0.5000000000000000    0.2500000000000000    0.7500000000000000 Ni
   0.5000000000000000    0.7500000000000000    0.2500000000000000 Ni
   0.5000000000000000    0.7500000000000000    0.7500000000000000 Ni
   0.2500000000000000    0.2500000000000000    0.2500000000000000 O
   0.2500000000000000    0.2500000000000000    0.7500000000000000 O
   0.2500000000000000    0.7500000000000000    0.2500000000000000 O
   0.2500000000000000    0.7500000000000000    0.7500000000000000 O
   0.7500000000000000    0.2500000000000000    0.2500000000000000 O
   0.7500000000000000    0.2500000000000000    0.7500000000000000 O
   0.7500000000000000    0.7500000000000000    0.2500000000000000 O
   0.7500000000000000    0.7500000000000000    0.7500000000000000 O
   0.2500000000000000    0.0000000000000000    0.2500000000000000 Ni
   0.2500000000000000    0.0000000000000000    0.7500000000000000 Ni
   0.2500000000000000    0.5000000000000000    0.2500000000000000 Ni
   0.2500000000000000    0.5000000000000000    0.7500000000000000 Ni
   0.7500000000000000    0.0000000000000000    0.2500000000000000 Ni
   0.7500000000000000    0.0000000000000000    0.7500000000000000 Ni
   0.7500000000000000    0.5000000000000000    0.2500000000000000 Ni
   0.7500000000000000    0.5000000000000000    0.7500000000000000 Ni
   0.0000000000000000    0.0000000000000000    0.2500000000000000 O
   0.0000000000000000    0.0000000000000000    0.7500000000000000 O
   0.0000000000000000    0.5000000000000000    0.2500000000000000 O
   0.0000000000000000    0.5000000000000000    0.7500000000000000 O
   0.5000000000000000    0.0000000000000000    0.2500000000000000 O
   0.5000000000000000    0.0000000000000000    0.7500000000000000 O
   0.5000000000000000    0.5000000000000000    0.2500000000000000 O
   0.5000000000000000    0.5000000000000000    0.7500000000000000 O
   0.2500000000000000    0.2500000000000000    0.0000000000000000 Ni
   0.2500000000000000    0.2500000000000000    0.5000000000000000 Ni
   0.2500000000000000    0.7500000000000000    0.0000000000000000 Ni
   0.2500000000000000    0.7500000000000000    0.5000000000000000 Ni
   0.7500000000000000    0.2500000000000000    0.0000000000000000 Ni
   0.7500000000000000    0.2500000000000000    0.5000000000000000 Ni
   0.7500000000000000    0.7500000000000000    0.0000000000000000 Ni
   0.7500000000000000    0.7500000000000000    0.5000000000000000 Ni
   0.0000000000000000    0.2500000000000000    0.0000000000000000 O
   0.0000000000000000    0.2500000000000000    0.5000000000000000 O
   0.0000000000000000    0.7500000000000000    0.0000000000000000 O
   0.0000000000000000    0.7500000000000000    0.5000000000000000 O
   0.5000000000000000    0.2500000000000000    0.0000000000000000 O
   0.5000000000000000    0.2500000000000000    0.5000000000000000 O
   0.5000000000000000    0.7500000000000000    0.0000000000000000 O
   0.5000000000000000    0.7500000000000000    0.5000000000000000 O
